NAME : lin105.tour
COMMENT : Optimum tour for lin105.tsp (Length 14379)
TYPE : TOUR
DIMENSION : 105
TOUR_SECTION  
39
60
61
65
66
87
88
94
95
100
99
98
90
89
93
102
101
97
96
92
91
85
84
83
82
78
71
68
67
64
72
77
79
86
80
76
73
81
75
74
69
70
63
62
105
59
56
55
50
48
45
49
40
104
44
47
51
54
57
58
53
52
46
43
41
42
37
36
26
25
18
17
16
27
24
19
12
20
23
28
33
32
31
30
29
22
21
103
15
11
10
7
6
2
1
3
8
9
5
4
13
14
34
35
38
-1
EOF
